RT is False
Default write of storage_offers_DA.csv just to have a file (but constraint should be inactive)
Reading model...
...model read.
creating competitive generators file...
...competitive generators recorded.
Loading data...
.. day-ahead data with real-time VRE data read.
Compiling instance...
...instance created.
Creating Offer Mitigation (model will solve as dispatch if TRUE)...
NOTE: storage offers will not be mitigated
...storage offer mitigation file created
Converting model to MPEC...
...converted
NOTE: initial MIP solve with only storage competitive to get feasible solution
Solving...

Welcome to IBM(R) ILOG(R) CPLEX(R) Interactive Optimizer 12.8.0.0
  with Simplex, Mixed Integer & Barrier Optimizers
5725-A06 5725-A29 5724-Y48 5724-Y49 5724-Y54 5724-Y55 5655-Y21
Copyright IBM Corp. 1988, 2017.  All Rights Reserved.

Type 'help' for a list of available commands.
Type 'help' followed by a command name for more
information on commands.

CPLEX> Logfile 'cplex.log' closed.
Logfile 'C:\Users\llavi\Desktop\test919\logs\tmpjand1lav.cplex.log' open.
CPLEX> New value for parallel optimization mode: -1
CPLEX> New value for mixed integer optimality gap tolerance: 0.01
CPLEX> New value for integrality tolerance: 1e-09
CPLEX> New value for feasibility tolerance: 0.01
CPLEX> New value for deterministic time limit in ticks: 75000
CPLEX> Problem 'C:\Users\llavi\Desktop\test919\logs\tmpor8yx195.pyomo.lp' read.
Read time = 0.27 sec. (13.50 ticks)
CPLEX> Problem name         : C:\Users\llavi\Desktop\test919\logs\tmpor8yx195.pyomo.lp
Objective sense      : Maximize
Variables            :   54021  [Nneg: 1,  Box: 22008,  Free: 4464,
                                 Binary: 27548]
Objective nonzeros   :    8980
Linear constraints   :  123829  [Less: 41554,  Greater: 59512,  Equal: 22763]
  Nonzeros           :  300593
  RHS nonzeros       :   67901

Variables            : Min LB: -5000.000        Max UB: 1000000.       
Objective nonzeros   : Min   : 0.008333333      Max   : 826.3667       
Linear constraints   :
  Nonzeros           : Min   : 0.001000000      Max   : 1000000.       
  RHS nonzeros       : Min   : 0.008333333      Max   : 1000000.       
CPLEX> CPXPARAM_Simplex_Tolerances_Feasibility          0.01
CPXPARAM_Parallel                                -1
CPXPARAM_DetTimeLimit                            75000
CPXPARAM_MIP_Tolerances_MIPGap                   0.01
CPXPARAM_MIP_Tolerances_Integrality              1.0000000000000001e-09
Tried aggregator 3 times.
MIP Presolve eliminated 89234 rows and 19126 columns.
MIP Presolve added 3402 rows and 0 columns.
MIP Presolve modified 23917 coefficients.
Aggregator did 13061 substitutions.
Reduced MIP has 24936 rows, 21278 columns, and 71171 nonzeros.
Reduced MIP has 8422 binaries, 0 generals, 0 SOSs, and 0 indicators.
Presolve time = 0.23 sec. (167.06 ticks)
Probing fixed 421 vars, tightened 2866 bounds.
Probing time = 3.22 sec. (909.19 ticks)
Tried aggregator 2 times.
MIP Presolve eliminated 951 rows and 842 columns.
MIP Presolve modified 2190 coefficients.
Aggregator did 34 substitutions.
Reduced MIP has 23951 rows, 20402 columns, and 68325 nonzeros.
Reduced MIP has 8001 binaries, 0 generals, 0 SOSs, and 0 indicators.
Presolve time = 0.13 sec. (54.01 ticks)
Probing time = 0.06 sec. (15.63 ticks)
Clique table members: 6496.
MIP emphasis: balance optimality and feasibility.
MIP search method: dynamic search.
Parallel mode: opportunistic, using up to 4 threads.
Root relaxation solution time = 0.58 sec. (448.26 ticks)

        Nodes                                         Cuts/
   Node  Left     Objective  IInf  Best Integer    Best Bound    ItCnt     Gap

      0     0     3482.6137   735                   3482.6137     3177         
*     0     0      integral     0     3482.6137     3482.6137     3177    0.00%
Elapsed time = 7.52 sec. (2746.42 ticks, tree = 0.01 MB, solutions = 1)

Root node processing (before b&c):
  Real time             =    7.53 sec. (2748.70 ticks)
Parallel b&c, 4 threads:
  Real time             =    0.00 sec. (0.00 ticks)
  Sync time (average)   =    0.00 sec.
  Wait time (average)   =    0.00 sec.
                          ------------
Total (root+branch&cut) =    7.53 sec. (2748.70 ticks)

Solution pool: 1 solution saved.

MIP - Integer optimal solution:  Objective =  3.4826137045e+03
Solution time =    7.53 sec.  Iterations = 3177  Nodes = 0
Deterministic time = 2748.85 ticks  (364.96 ticks/sec)

CPLEX> Incumbent solution written to file 'C:\Users\llavi\Desktop\test919\logs\tmpgt_g8x5m.cplex.sol'.
CPLEX> NOTE: no warmstart specified for MIP iteration, default behavior is true
NOTE: resolving with all competitive generators using storage-only solution to warmstart
Solving...

Welcome to IBM(R) ILOG(R) CPLEX(R) Interactive Optimizer 12.8.0.0
  with Simplex, Mixed Integer & Barrier Optimizers
5725-A06 5725-A29 5724-Y48 5724-Y49 5724-Y54 5724-Y55 5655-Y21
Copyright IBM Corp. 1988, 2017.  All Rights Reserved.

Type 'help' for a list of available commands.
Type 'help' followed by a command name for more
information on commands.

CPLEX> Logfile 'cplex.log' closed.
Logfile 'C:\Users\llavi\Desktop\test919\logs\tmpaf0u01g7.cplex.log' open.
CPLEX> New value for parallel optimization mode: -1
CPLEX> New value for mixed integer optimality gap tolerance: 0.01
CPLEX> New value for integrality tolerance: 1e-09
CPLEX> New value for feasibility tolerance: 0.01
CPLEX> New value for deterministic time limit in ticks: 75000
CPLEX> Problem 'C:\Users\llavi\Desktop\test919\logs\tmp892i9rc9.pyomo.lp' read.
Read time = 0.28 sec. (13.52 ticks)
CPLEX> MIP start file 'C:\Users\llavi\Desktop\test919\logs\tmp17ll26i4.cplex.mst' read.
CPLEX> Problem name         : C:\Users\llavi\Desktop\test919\logs\tmp892i9rc9.pyomo.lp
Objective sense      : Maximize
Variables            :   54741  [Nneg: 1,  Box: 22728,  Free: 4464,
                                 Binary: 27548]
Objective nonzeros   :    9700
Linear constraints   :  123829  [Less: 41554,  Greater: 59512,  Equal: 22763]
  Nonzeros           :  300593
  RHS nonzeros       :   67901

Variables            : Min LB: -5000.000        Max UB: 1000000.       
Objective nonzeros   : Min   : 0.008333333      Max   : 826.3667       
Linear constraints   :
  Nonzeros           : Min   : 0.001000000      Max   : 1000000.       
  RHS nonzeros       : Min   : 0.008333333      Max   : 1000000.       
CPLEX> CPXPARAM_Simplex_Tolerances_Feasibility          0.01
CPXPARAM_Parallel                                -1
CPXPARAM_DetTimeLimit                            75000
CPXPARAM_MIP_Tolerances_MIPGap                   0.01
CPXPARAM_MIP_Tolerances_Integrality              1.0000000000000001e-09
1 of 1 MIP starts provided solutions.
MIP start 'm1' defined initial solution with objective 3482.6137.
Tried aggregator 3 times.
MIP Presolve eliminated 89234 rows and 19846 columns.
MIP Presolve added 3402 rows and 0 columns.
MIP Presolve modified 23917 coefficients.
Aggregator did 13061 substitutions.
Reduced MIP has 24936 rows, 21278 columns, and 71171 nonzeros.
Reduced MIP has 8422 binaries, 0 generals, 0 SOSs, and 0 indicators.
Presolve time = 0.27 sec. (167.43 ticks)
Probing fixed 421 vars, tightened 2866 bounds.
Probing time = 3.25 sec. (909.19 ticks)
Tried aggregator 2 times.
MIP Presolve eliminated 951 rows and 842 columns.
MIP Presolve modified 2190 coefficients.
Aggregator did 34 substitutions.
Reduced MIP has 23951 rows, 20402 columns, and 68325 nonzeros.
Reduced MIP has 8001 binaries, 0 generals, 0 SOSs, and 0 indicators.
Presolve time = 0.13 sec. (54.02 ticks)
Probing time = 0.06 sec. (16.42 ticks)
Clique table members: 6522.
MIP emphasis: balance optimality and feasibility.
MIP search method: dynamic search.
Parallel mode: opportunistic, using up to 4 threads.
Root relaxation solution time = 0.39 sec. (179.49 ticks)

        Nodes                                         Cuts/
   Node  Left     Objective  IInf  Best Integer    Best Bound    ItCnt     Gap

*     0+    0                         3482.6137   5.70247e+07              --- 
      0     0        cutoff           3482.6137                   3235     --- 

Root node processing (before b&c):
  Real time             =   10.39 sec. (3789.87 ticks)
Parallel b&c, 4 threads:
  Real time             =    0.00 sec. (0.00 ticks)
  Sync time (average)   =    0.00 sec.
  Wait time (average)   =    0.00 sec.
                          ------------
Total (root+branch&cut) =   10.39 sec. (3789.87 ticks)

Solution pool: 1 solution saved.

MIP - Integer optimal solution:  Objective =  3.4826137045e+03
Solution time =   10.39 sec.  Iterations = 3235  Nodes = 0
Deterministic time = 3790.03 ticks  (364.78 ticks/sec)

CPLEX> Incumbent solution written to file 'C:\Users\llavi\Desktop\test919\logs\tmph0nqm82p.cplex.sol'.
CPLEX> Exporting results... 
